48 87
33 178
99 3
7 115
9 115
12 24
1 186
54 21
8 78
27 65
58 17
15 108
93 25
78 32
87 56
79 22
32 51
15 71
9 23
29 124
28 44
86 11
9 124
2 163
3 85
18 164
12 94
19 161
71 60
29 59
2 176
2 89
42 30
34 81
10 131
13 58
87 9
10 40
71 29
3 41
6 82
17 155
11 105
99 22
62 8
13 172
10 157
43 93
3 45
7 102
80 39
18 179
15 33
24 120
37 56
10 95
85 25
55 89
30 190
20 149
22 116
57 2
23 130
72 30
31 54
44 134
47 92
30 193
19 124
36 39
100 34
28 19
13 54
12 57
77 11
4 147
18 152
66 14
46 13
37 49
43 57
27 118
42 2
19 117
30 118
78 51
95 37
3 33
32 32
30 20
55 3
85 67
8 3
36 41
100 20
28 136
72 5
12 52
6 101
1 182
